************************************************************************
file with basedata            : md273_.bas
initial value random generator: 971308142
************************************************************************
projects                      :  1
jobs (incl. supersource/sink ):  20
horizon                       :  135
RESOURCES
  - renewable                 :  2   R
  - nonrenewable              :  2   N
  - doubly constrained        :  0   D
************************************************************************
PROJECT INFORMATION:
pronr.  #jobs rel.date duedate tardcost  MPM-Time
    1     18      0       21       10       21
************************************************************************
PRECEDENCE RELATIONS:
jobnr.    #modes  #successors   successors
   1        1          3           2   3   4
   2        3          3           6  11  18
   3        3          1          15
   4        3          3           5   7   8
   5        3          3           9  10  11
   6        3          2          10  12
   7        3          2          12  13
   8        3          2          17  18
   9        3          2          12  13
  10        3          1          16
  11        3          3          15  16  19
  12        3          1          14
  13        3          2          14  18
  14        3          3          15  16  19
  15        3          1          17
  16        3          1          17
  17        3          1          20
  18        3          1          20
  19        3          1          20
  20        1          0        
************************************************************************
REQUESTS/DURATIONS:
jobnr. mode duration  R 1  R 2  N 1  N 2
------------------------------------------------------------------------
  1      1     0       0    0    0    0
  2      1     1       0    1    0    8
         2     9       2    0    0    6
         3     9       6    0    1    0
  3      1     3       6    0    8    0
         2     4       0    7    0    5
         3     5       0    2    5    0
  4      1     3       0    5    0    8
         2     7       9    0    3    0
         3    10       0    3    3    0
  5      1     2       4    0    0    5
         2     3       0   10    6    0
         3     6       0    9    0    2
  6      1     3       6    0    4    0
         2    10       0    7    0    6
         3    10       4    0    0    7
  7      1     3       0    7    4    0
         2     4       2    0    3    0
         3     5       0    5    0    2
  8      1     7       0    8    1    0
         2     7       0    7    3    0
         3     8       0    6    0    7
  9      1     4       0    4   10    0
         2     7       0    2    7    0
         3    10       8    0    0    5
 10      1     5       4    0    9    0
         2    10       0    7    8    0
         3    10       1    0    8    0
 11      1     4       4    0    0    3
         2     4       7    0    8    0
         3    10       0    9    0    3
 12      1     2       7    0    8    0
         2     3       0    9    8    0
         3     6       0    8    7    0
 13      1     1       6    0    0    1
         2     3       6    0    7    0
         3     4       0    2    6    0
 14      1     4       8    0    0    7
         2     5       0    2    8    0
         3     9       0    2    3    0
 15      1     3       0   10    0    5
         2     5       0   10    4    0
         3     5       0   10    0    3
 16      1     1       0    5    4    0
         2     4       0    5    0    8
         3     7       6    0    0    6
 17      1     3       0    3    0    2
         2     6       0    1    4    0
         3     7       4    0    0    2
 18      1     1       0    6    4    0
         2     7       0    2    3    0
         3     7       2    0    0    2
 19      1     2       0    7    0    6
         2     3       6    0    0    5
         3     7       4    0    0    5
 20      1     0       0    0    0    0
************************************************************************
RESOURCEAVAILABILITIES:
  R 1  R 2  N 1  N 2
    6   17   75   62
************************************************************************
